32 3 52 56 58 64 1 50 34 
91 54 53 38 14 59 75 
7 24 62 15 16 80 83 2 
90 87 86 96 46 61 88 99 
55 41 35 30 77 51 69 
81 78 40 74 12 31 66 95 72 
43 33 82 70 45 6 21 47 
94 25 19 73 100 
67 65 76 10 93 85 23 
20 42 71 84 9 36 48 49 
57 63 27 92 97 79 22 37 
13 17 18 29 11 60 89 98 5 26 
8 44 28 4 
39 68 

